p edge 28 116
e 1 2
e 1 3
e 1 4
e 1 7
e 1 8
e 1 9
e 1 10
e 1 11
e 2 3
e 2 4
e 2 5
e 2 6
e 2 7
e 2 8
e 2 9
e 2 10
e 2 11
e 2 12
e 2 13
e 2 14
e 2 15
e 2 16
e 2 17
e 2 28
e 3 7
e 3 8
e 4 5
e 4 7
e 4 8
e 4 11
e 4 12
e 4 13
e 4 14
e 4 15
e 4 16
e 4 17
e 4 18
e 4 19
e 4 20
e 4 21
e 4 22
e 4 23
e 5 7
e 5 8
e 5 12
e 5 13
e 5 15
e 5 16
e 6 28
e 7 8
e 7 9
e 7 10
e 7 11
e 7 12
e 7 13
e 7 14
e 7 15
e 7 16
e 7 17
e 7 18
e 7 19
e 7 20
e 7 21
e 7 22
e 7 23
e 7 24
e 8 9
e 8 10
e 8 11
e 8 12
e 8 13
e 8 14
e 8 15
e 8 16
e 8 17
e 8 18
e 8 19
e 8 20
e 8 21
e 8 22
e 8 23
e 8 24
e 12 13
e 12 14
e 12 15
e 12 16
e 12 17
e 12 18
e 12 19
e 12 20
e 12 21
e 12 22
e 12 23
e 13 14
e 13 15
e 13 16
e 13 17
e 14 15
e 15 16
e 15 17
e 18 19
e 18 20
e 18 21
e 18 22
e 18 23
e 19 20
e 19 21
e 19 22
e 19 23
e 20 21
e 20 22
e 20 23
e 21 22
e 21 23
e 22 23
e 26 28
